
<<< setup

Version identifier: 22.1.0.0 | 2022-03-09 | 1a383f8ce
Tried aggregator 1 time.
LP Presolve eliminated 40 rows and 18 columns.
Reduced LP has 1 rows, 9 columns, and 9 nonzeros.
Presolve time = 0.00 sec. (0.02 ticks)

Iteration log . . .
Iteration:     1   Dual objective     =          4990.900000
main returns 0

<<< main


<<< done

